NAME: random-36-15368
TYPE: TSP
COMMENT: size=36 seed=15368
DIMENSION: 74
EDGE_WEIGHT_TYPE: EUC_2D
NODE_COORD_SECTION
+0 976 45
-0 976 45
+1 251 588
-1 58 600
+2 631 404
-2 149 366
+3 866 899
-3 29 524
+4 178 926
-4 996 747
+5 999 754
-5 915 970
+6 139 585
-6 221 601
+7 17 855
-7 813 657
+8 65 593
-8 216 476
+9 138 104
-9 262 870
+10 844 243
-10 689 329
+11 716 461
-11 122 876
+12 815 594
-12 355 677
+13 406 464
-13 737 294
+14 660 763
-14 156 594
+15 102 897
-15 734 238
+16 954 527
-16 306 226
+17 349 293
-17 646 767
+18 754 963
-18 93 913
+19 564 705
-19 206 300
+20 833 470
-20 251 108
+21 335 682
-21 482 916
+22 695 879
-22 983 835
+23 922 687
-23 388 641
+24 684 12
-24 898 191
+25 89 166
-25 317 924
+26 202 849
-26 979 67
+27 381 652
-27 505 155
+28 426 264
-28 186 484
+29 871 789
-29 223 28
+30 174 283
-30 830 142
+31 149 748
-31 373 198
+32 548 303
-32 399 380
+33 606 446
-33 193 302
+34 800 267
-34 47 450
+35 124 554
-35 322 404
+36 871 913
-36 707 265
PRECEDENCE_SECTION
+0 -0
+1 -1
+2 -2
+3 -3
+4 -4
+5 -5
+6 -6
+7 -7
+8 -8
+9 -9
+10 -10
+11 -11
+12 -12
+13 -13
+14 -14
+15 -15
+16 -16
+17 -17
+18 -18
+19 -19
+20 -20
+21 -21
+22 -22
+23 -23
+24 -24
+25 -25
+26 -26
+27 -27
+28 -28
+29 -29
+30 -30
+31 -31
+32 -32
+33 -33
+34 -34
+35 -35
+36 -36
EOF
